

*************************************************************

   NEOS Server Version 6.0
   Job#     : 18284354
   Password : ufdUClsc
   User     : 
   Solver   : milp:Gurobi:AMPL
   Start    : 2026-01-26 08:49:53
   End      : 2026-01-26 08:57:00
   Host     : prod-sub-1.neos-server.org

   Disclaimer:

   This information is provided without any express or
   implied warranty. In particular, there is no warranty
   of any kind concerning the fitness of this
   information for any particular purpose.

   Announcements:
*************************************************************
You are using the solver gurobi_ampl.
Checking ampl.mod for gurobi_options...
Checking ampl.com for gurobi_options...
Executing AMPL.
processing data.
processing commands.
Executing on prod-exec-6.neos-server.org
N = 595


"option presolve 0;" used, but "option presolve 10;" might work better.
595 variables, all binary
176715 constraints, all linear; 353430 nonzeros
	176715 inequality constraints
1 linear objective; 595 nonzeros.

Gurobi 12.0.3:   tech:threads = 4
  pre:solve = 2
  alg:iisfind = 1
Set parameter LogToConsole to value 1
  tech:outlev = 1

AMPL MP initial flat model has 595 variables (0 integer, 595 binary);
Objectives: 1 linear; 
Constraints:  176715 linear;

AMPL MP final model has 595 variables (0 integer, 595 binary);
Objectives: 1 linear; 
Constraints:  176715 linear;


Set parameter InfUnbdInfo to value 1
Gurobi Optimizer version 12.0.3 build v12.0.3rc0 (linux64 - "Rocky Linux 8.10 (Green Obsidian)")

CPU model: Intel(R) Xeon(R) Gold 6140 CPU @ 2.30GHz, instruction set [SSE2|AVX|AVX2|AVX512]
Thread count: 36 physical cores, 72 logical processors, using up to 4 threads

Non-default parameters:
InfUnbdInfo  1
Presolve  2
Threads  4

Optimize a model with 176715 rows, 595 columns and 353430 nonzeros
Model fingerprint: 0x57a2dfec
Variable types: 0 continuous, 595 integer (0 binary)
Coefficient statistics:
  Matrix range     [1e+00, 1e+00]
  Objective range  [1e+00, 1e+00]
  Bounds range     [1e+00, 1e+00]
  RHS range        [1e+00, 2e+00]
Found heuristic solution: objective 23.0000000
Presolve removed 171294 rows and 0 columns
Presolve time: 0.13s
Presolved: 5421 rows, 595 columns, 24136 nonzeros
Variable types: 0 continuous, 595 integer (595 binary)
Performing another presolve...
Presolve removed 238 rows and 0 columns
Presolve time: 0.54s
Root relaxation presolved: 5183 rows, 595 columns, 33930 nonzeros

Warning: Markowitz tolerance tightened to 0.03125

Root relaxation: objective 5.648559e+01, 8369 iterations, 2.30 seconds (3.09 work units)

    Nodes    |    Current Node    |     Objective Bounds      |     Work
 Expl Unexpl |  Obj  Depth IntInf | Incumbent    BestBd   Gap | It/Node Time

     0     0   56.48559    0  438   23.00000   56.48559   146%     -    3s
H    0     0                      24.0000000   56.48559   135%     -    3s
H    0     0                      26.0000000   56.48559   117%     -    3s
H    0     0                      27.0000000   36.17361  34.0%     -    4s
     0     0   36.17361    0  182   27.00000   36.17361  34.0%     -    4s
H    0     0                      28.0000000   36.17361  29.2%     -    4s
     0     0   35.00000    0  157   28.00000   35.00000  25.0%     -    4s
H    0     0                      29.0000000   35.00000  20.7%     -    4s
H    0     0                      30.0000000   35.00000  16.7%     -    4s
     0     0   35.00000    0  142   30.00000   35.00000  16.7%     -    4s
     0     0   35.00000    0  144   30.00000   35.00000  16.7%     -    4s
H    0     0                      31.0000000   35.00000  12.9%     -    4s
H    0     0                      32.0000000   35.00000  9.37%     -    4s
     0     0   35.00000    0  130   32.00000   35.00000  9.37%     -    4s
     0     0   35.00000    0  143   32.00000   35.00000  9.37%     -    5s
     0     0   35.00000    0  133   32.00000   35.00000  9.37%     -    5s
     0     0   35.00000    0  141   32.00000   35.00000  9.37%     -    5s
     0     0   35.00000    0  126   32.00000   35.00000  9.37%     -    5s
H    0     0                      33.0000000   35.00000  6.06%     -    6s
     0     0   35.00000    0  154   33.00000   35.00000  6.06%     -    6s
     0     0   35.00000    0  137   33.00000   35.00000  6.06%     -    6s
     0     0   35.00000    0  144   33.00000   35.00000  6.06%     -    6s
     0     0   35.00000    0  144   33.00000   35.00000  6.06%     -    6s
     0     2   35.00000    0  144   33.00000   35.00000  6.06%     -    7s
   680   359     cutoff   29        33.00000   35.00000  6.06%  83.0   10s
  1793   796   34.66667   21  437   33.00000   35.00000  6.06%  77.1   18s
  1798   800   34.79310   24  143   33.00000   35.00000  6.06%  76.9   20s
  1814   810   34.66667   25  141   33.00000   35.00000  6.06%  76.2   25s
  2138   945     cutoff   55        33.00000   35.00000  6.06%   105   30s
  3174  1068   34.72222   25  108   33.00000   35.00000  6.06%  94.0   35s
  5186  1409   34.83333   36   85   33.00000   35.00000  6.06%  87.2   40s
  6975  1995   34.94444   23  117   33.00000   35.00000  6.06%  86.8   45s
  7849  2445   34.60000   32   89   33.00000   35.00000  6.06%  86.0   50s
 10073  3245   34.75000   34   88   33.00000   35.00000  6.06%  83.8   55s
 12618  4258     cutoff   37        33.00000   35.00000  6.06%  84.7   60s
 14504  4898   34.00000   60   89   33.00000   35.00000  6.06%  84.2   65s
 15967  5426   34.88889   28   98   33.00000   35.00000  6.06%  84.6   70s
 18334  6311   34.00000   33   96   33.00000   35.00000  6.06%  86.3   75s
 21012  7080   34.00000   27  298   33.00000   35.00000  6.06%  85.5   94s
 21014  7081   34.93333   44  437   33.00000   35.00000  6.06%  85.5   99s
 21016  7083   34.00000   57  151   33.00000   35.00000  6.06%  85.5  100s
 21031  7093   34.50000   32  141   33.00000   35.00000  6.06%  85.5  105s
 21038  7100   35.00000   25  133   33.00000   35.00000  6.06%  87.0  110s
 21321  7197   35.00000   43   52   33.00000   35.00000  6.06%  87.5  115s
 21819  7212   34.66667   38   64   33.00000   35.00000  6.06%  87.4  120s
 23721  7343   34.00000   45   74   33.00000   35.00000  6.06%  86.3  125s
 25287  7254     cutoff   43        33.00000   35.00000  6.06%  86.5  130s
 27213  7369   34.00000   56   68   33.00000   35.00000  6.06%  87.8  135s
 29998  7500   34.98726   52  128   33.00000   35.00000  6.06%  88.4  140s
 31779  8517   34.25000   40   88   33.00000   35.00000  6.06%  88.9  154s
 35779  7182   34.39394   46   94   33.00000   35.00000  6.06%  90.7  155s
 38211  7375   34.90476   51   94   33.00000   35.00000  6.06%  91.0  160s
 41396  7221   35.00000   44   87   33.00000   35.00000  6.06%  91.8  165s
 43061  7628   34.95455   49  117   33.00000   35.00000  6.06%  92.7  171s
 45240  8632   34.20000   63   85   33.00000   35.00000  6.06%  93.7  175s
 47003  9226   34.00000   47   84   33.00000   35.00000  6.06%  94.2  180s
 49709 10412     cutoff   59        33.00000   35.00000  6.06%  94.6  185s
 52665 11353   35.00000   39   93   33.00000   35.00000  6.06%  95.5  191s
 55360 12156   34.80000   50   85   33.00000   35.00000  6.06%  96.3  195s
 56696 12848   35.00000   41   87   33.00000   35.00000  6.06%  96.4  200s
 60085 14049   34.66667   49   80   33.00000   35.00000  6.06%  96.8  205s
 61460 14527   34.38462   49   82   33.00000   35.00000  6.06%  97.2  210s
 63454 15240   34.93333   51  120   33.00000   35.00000  6.06%  97.7  215s
 66799 16795   34.00000   73  101   33.00000   35.00000  6.06%  98.0  220s
 68669 17462   34.60000   57   84   33.00000   35.00000  6.06%  98.6  225s
 71135 18527   34.11111   72   89   33.00000   35.00000  6.06%  99.4  230s
 73346 19340   34.60000   92   99   33.00000   35.00000  6.06%   100  236s
 74530 19664   35.00000   54   97   33.00000   35.00000  6.06%   100  240s
 76397 20140   34.00000   59   48   33.00000   35.00000  6.06%   101  245s
 78184 20847   35.00000   53   88   33.00000   35.00000  6.06%   101  250s
 80882 21626   34.36364   52  106   33.00000   35.00000  6.06%   102  255s
 83669 22367   34.80000   69  133   33.00000   35.00000  6.06%   102  261s
 84614 22636   34.85714   49   94   33.00000   35.00000  6.06%   103  265s
 87041 23380   34.25000   91   99   33.00000   35.00000  6.06%   103  270s
 90017 24192   34.33333   63   81   33.00000   35.00000  6.06%   104  275s
 92560 25151   34.98765   46  111   33.00000   35.00000  6.06%   104  280s
 93934 25663     cutoff   43        33.00000   35.00000  6.06%   104  285s
 96403 26345   34.50000   53   57   33.00000   35.00000  6.06%   105  290s
 97866 26916   34.96774   44  135   33.00000   35.00000  6.06%   105  295s
 99088 27559   35.00000   36   97   33.00000   35.00000  6.06%   105  300s
 101686 28353   35.00000   48   80   33.00000   35.00000  6.06%   105  305s
 104306 29380   34.00000   43   85   33.00000   35.00000  6.06%   105  310s
 106996 30148   34.66667   49  102   33.00000   35.00000  6.06%   105  315s
 109516 31024   35.00000   38   48   33.00000   35.00000  6.06%   105  320s
 111962 31663   34.66667   44   90   33.00000   35.00000  6.06%   106  325s
 113877 32382   35.00000   43   96   33.00000   35.00000  6.06%   106  330s
 115631 32989   34.98214   74  133   33.00000   35.00000  6.06%   106  335s
 117659 33429   34.00000   49   85   33.00000   35.00000  6.06%   106  340s
 119959 34172   34.00000   48   93   33.00000   35.00000  6.06%   107  345s
 121755 34642     cutoff   41        33.00000   35.00000  6.06%   107  350s
 124552 35591   34.65000   46  105   33.00000   35.00000  6.06%   107  355s
*126152  1131              51      34.0000000   35.00000  2.94%   107  359s
 126195   990   35.00000   48  298   34.00000   35.00000  2.94%   107  360s
 126197   991   35.00000   54  437   34.00000   35.00000  2.94%   107  366s
 126208   999   35.00000   53  151   34.00000   35.00000  2.94%   107  370s
 126227  1035   35.00000   40  111   34.00000   35.00000  2.94%   108  375s
 126775   913   35.00000   52   84   34.00000   35.00000  2.94%   108  380s
 127192   771   35.00000   53   63   34.00000   35.00000  2.94%   108  385s
 127621   638   35.00000   55   87   34.00000   35.00000  2.94%   108  390s
 128507   340   35.00000   53   77   34.00000   35.00000  2.94%   108  395s
 130361   170   35.00000   56   80   34.00000   35.00000  2.94%   108  400s
 131963   217 infeasible   55        34.00000   35.00000  2.94%   108  405s
 134015   190   35.00000   65   75   34.00000   35.00000  2.94%   108  410s
 135425   298   35.00000   63   88   34.00000   35.00000  2.94%   108  416s
 136258   365   35.00000   57   81   34.00000   35.00000  2.94%   108  421s
*136310   274              57      35.0000000   35.00000  0.00%   108  421s

Cutting planes:
  Cover: 2
  Clique: 292
  Flow cover: 1
  Zero half: 5
  Relax-and-lift: 2

Explored 136989 nodes (14849480 simplex iterations) in 421.24 seconds (762.66 work units)
Thread count was 4 (of 72 available processors)

Solution count 10: 35 34 33 ... 26

Optimal solution found (tolerance 1.00e-04)
Best objective 3.500000000000e+01, best bound 3.500000000000e+01, gap 0.0000%
Gurobi 12.0.3: optimal solution; objective 35
1.48495e+07 simplex iterations
136989 branching nodes
clique_size = 35

Vertices in clique
==================
8
34
48
56
69
96
111
130
149
156
181
197
212
236
240
264
283
292
311
339
345
370
380
392
411
442
443
473
491
502
513
538
555
564
585

NEOS Server Home

